QPLIB_2658
LCQ
minimize
184 # number of variables
190 # number of constraints
0.0 # default value for linear coefficients in objective
1 # number of non-default linear coefficients in objective
55 1.0
0.0 # objective constant
217 # number of quadratic terms in all constraints
58 1 1 -2.0
59 36556641 146 2.0
60 1 1 2.0
61 36623057 36557825 2.0
62 1 1 2.0
63 36557585 1 2.0
64 23 1 2.0
65 36556593 23 2.0
66 23 1 2.0
67 36556641 23 2.0
68 23 1 2.0
69 36557825 23 2.0
70 23 1 2.0
71 23 1 2.0
72 23 23 2.0
73 23 23 2.0
74 23 23 2.0
75 23 23 2.0
76 23 23 2.0
77 23 23 2.0
78 41 23 2.0
79 23 1 2.0
80 23 1 2.0
81 23 1 2.0
82 23 1 2.0
83 23 1 2.0
84 23 1 2.0
85 23 1 2.0
86 41 1 2.0
87 66 1 2.0
88 1 1 2.0
89 1 1 2.0
90 1072693249 1 2.0
91 1 -980308983 2.0
92 32740 1 2.0
93 1 1 2.0
94 1 1 2.0
95 524289 66 2.0
96 1 1 2.0
97 36556657 1 2.0
98 1072693249 1 2.0
99 36557601 -980308983 2.0
100 32740 1 2.0
101 1 1 2.0
102 1 1 2.0
103 524289 98 2.0
104 1 1 2.0
105 36556657 -980309047 2.0
106 32740 1 2.0
107 36557601 -980309047 2.0
108 32740 1 2.0
109 97 1 2.0
110 1 1 2.0
111 98 65 2.0
112 1 1 2.0
113 1 -980309047 2.0
114 32740 1 2.0
115 1 -980309047 2.0
116 32740 1 2.0
117 97 1 2.0
118 1 1 2.0
119 65 1 -2.0
120 1 1 -2.0
121 1 -980309127 -2.0
122 32740 1 -2.0
123 36558817 1 -2.0
124 1 1 -2.0
125 97 1 -2.0
126 1 1 -2.0
127 113 1 -2.0
128 1 1 -2.0
129 -980309127 -1004219807 -2.0
130 32740 32740 -2.0
131 36558817 1 -2.0
132 1 1 -2.0
133 97 1 -2.0
134 1 1 -2.0
135 113 1 -2.0
136 1 1 -2.0
137 36553281 -1004219807 -2.0
138 32740 1 -2.0
139 36556833 1 -2.0
140 1 1 -2.0
141 1 1 -2.0
142 1 1 -2.0
143 1 1 -2.0
144 1 1 -2.0
145 36553281 1 -2.0
146 1 1 -2.0
147 36556833 1 -2.0
148 10 1 -2.0
149 1 1 -2.0
150 1 1 -2.0
151 1 1 -2.0
152 1027 1 -2.0
153 36557313 1 -2.0
154 1 1 -2.0
155 34 1 -2.0
156 10 1 -2.0
157 1818576901 1 -2.0
158 32625 1 -2.0
159 1 -980309127 -2.0
160 32740 1027 -2.0
161 36557313 33 -2.0
162 1 1 -2.0
163 50 34 -2.0
164 1 1 -2.0
165 1818576901 1651076122 -2.0
166 1852403556 32625 -2.0
167 1768711012 -980309127 2.0
167 1768711012 -980309127 -4.0
167 1768711012 -980309127 2.0
167 1768711012 -980309127 -4.0
167 1768711012 -980309127 2.0
167 1768711012 -980309127 2.0
168 775173731 32740 2.0
168 775173731 32740 -4.0
168 775173731 32740 2.0
168 775173731 32740 -4.0
168 775173731 32740 2.0
168 775173731 32740 2.0
169 1646292852 33 2.0
169 1646292852 33 -4.0
169 1646292852 33 2.0
169 1646292852 33 -4.0
169 1646292852 33 2.0
169 1646292852 33 2.0
170 824209008 1 2.0
170 824209008 1 -4.0
170 824209008 1 2.0
170 824209008 1 -4.0
170 824209008 1 2.0
170 824209008 1 2.0
171 12321 50 2.0
171 12321 50 -4.0
171 12321 50 2.0
171 12321 50 -4.0
171 12321 50 2.0
171 12321 50 2.0
172 1 1 2.0
172 1 1 -4.0
172 1 1 2.0
172 1 1 -4.0
172 1 1 2.0
172 1 1 2.0
173 1651076122 1 2.0
173 1651076122 1 -4.0
173 1651076122 1 2.0
173 1651076122 1 -4.0
173 1651076122 1 2.0
173 1651076122 1 2.0
174 1852403556 1 2.0
174 1852403556 1 -4.0
174 1852403556 1 2.0
174 1852403556 1 -4.0
174 1852403556 1 2.0
174 1852403556 1 2.0
175 1768711012 50 2.0
175 1768711012 50 -4.0
175 1768711012 50 2.0
175 1768711012 50 -4.0
175 1768711012 50 2.0
175 1768711012 50 2.0
176 775173731 1 2.0
176 775173731 1 -4.0
176 775173731 1 2.0
176 775173731 1 -4.0
176 775173731 1 2.0
176 775173731 1 2.0
177 1651076122 1646292852 2.0
177 1651076122 1646292852 -4.0
177 1651076122 1646292852 2.0
177 1651076122 1646292852 -4.0
177 1651076122 1646292852 2.0
177 1651076122 1646292852 2.0
178 1852403556 824209008 2.0
178 1852403556 824209008 -4.0
178 1852403556 824209008 2.0
178 1852403556 824209008 -4.0
178 1852403556 824209008 2.0
178 1852403556 824209008 2.0
179 1768711012 12321 2.0
179 1768711012 12321 -4.0
179 1768711012 12321 2.0
179 1768711012 12321 -4.0
179 1768711012 12321 2.0
179 1768711012 12321 2.0
180 775173731 1 2.0
180 775173731 1 -4.0
180 775173731 1 2.0
180 775173731 1 -4.0
180 775173731 1 2.0
180 775173731 1 2.0
181 1663070068 1 2.0
181 1663070068 1 -4.0
181 1663070068 1 2.0
181 1663070068 1 -4.0
181 1663070068 1 2.0
181 1663070068 1 2.0
182 824206179 1 2.0
182 824206179 1 2.0
183 12321 50 2.0
183 12321 50 2.0
184 1 1 2.0
184 1 1 2.0
185 1651076122 1 2.0
185 1651076122 1 2.0
186 1852403556 1 2.0
186 1852403556 1 2.0
187 1768711012 50 2.0
187 1768711012 50 2.0
188 775173731 1 2.0
188 775173731 1 2.0
189 1663070068 1651076122 2.0
189 1663070068 1651076122 2.0
190 1852403556 824206179 2.0
190 1852403556 824206179 2.0
353 # number of linear terms in all constraints
1 55 1.0
1 116 -1.0
2 117 1.0
2 118 -1.0
3 119 1.0
3 120 -1.0
4 118 -1.0
4 121 1.0
5 120 -1.0
5 122 1.0
6 118 -1.0
6 123 1.0
7 120 -1.0
7 124 1.0
8 118 -1.0
8 125 1.0
9 120 -1.0
9 126 1.0
10 118 -1.0
10 127 1.0
11 120 -1.0
11 128 1.0
12 118 -1.0
12 129 1.0
13 120 -1.0
13 130 1.0
14 118 -1.0
14 131 1.0
15 120 -1.0
15 132 1.0
16 118 -1.0
16 133 1.0
17 120 -1.0
17 134 1.0
18 118 -1.0
18 135 1.0
19 120 -1.0
19 136 1.0
20 118 -1.0
20 137 1.0
21 120 -1.0
21 138 1.0
22 131 1.0
22 133 -1.0
22 139 1.0
23 132 1.0
23 134 -1.0
23 140 1.0
24 133 1.0
24 135 -1.0
24 141 1.0
25 134 1.0
25 136 -1.0
25 142 1.0
26 135 1.0
26 137 -1.0
26 143 1.0
27 136 1.0
27 138 -1.0
27 144 1.0
28 131 -1.0
28 137 2.0
28 145 1.0
28 146 -1.0
29 132 -1.0
29 138 2.0
29 147 1.0
29 148 -1.0
30 139 1.0
30 143 1.0
31 140 1.0
31 144 1.0
32 141 1.0
32 145 1.0
33 142 1.0
33 147 1.0
34 149 -1.0
34 150 1.0
35 151 -1.0
35 152 1.0
36 153 -1.0
36 154 1.0
37 155 -1.0
37 156 1.0
38 157 -1.0
38 158 1.0
39 159 -1.0
39 160 1.0
40 161 1.0
40 162 1.0
41 163 1.0
41 164 1.0
42 165 1.0
42 166 1.0
43 167 1.0
43 168 1.0
44 169 1.0
44 170 1.0
45 171 1.0
45 172 1.0
46 150 1.2
46 173 1.0
47 162 1.2
47 174 1.0
48 152 0.6
48 175 1.0
49 164 0.6
49 176 1.0
50 154 0.8
50 177 1.0
51 166 0.8
51 178 1.0
52 156 1.7
52 179 1.0
53 168 1.7
53 180 1.0
54 158 1.3
54 181 1.0
55 170 1.3
55 182 1.0
56 160 0.5
56 183 1.0
57 172 0.5
57 184 1.0
58 116 1.0
59 56 1.0
59 57 1.0
59 131 -1.0
60 58 1.0
60 59 1.0
60 132 -1.0
61 56 1.0
61 60 1.0
61 133 -1.0
62 58 1.0
62 61 1.0
62 134 -1.0
63 56 1.0
63 62 1.0
63 135 -1.0
64 58 1.0
64 63 1.0
64 136 -1.0
65 56 1.0
65 64 1.0
65 137 -1.0
66 58 1.0
66 65 1.0
66 138 -1.0
67 66 1.0
67 67 1.0
67 131 -1.0
68 68 1.0
68 69 1.0
68 132 -1.0
69 66 1.0
69 70 1.0
69 133 -1.0
70 68 1.0
70 71 1.0
70 134 -1.0
71 66 1.0
71 72 1.0
71 135 -1.0
72 68 1.0
72 73 1.0
72 136 -1.0
73 66 1.0
73 74 1.0
73 137 -1.0
74 68 1.0
74 75 1.0
74 138 -1.0
75 76 1.0
75 77 1.0
75 131 -1.0
76 78 1.0
76 79 1.0
76 132 -1.0
77 76 1.0
77 80 1.0
77 133 -1.0
78 78 1.0
78 81 1.0
78 134 -1.0
79 76 1.0
79 82 1.0
79 135 -1.0
80 78 1.0
80 83 1.0
80 136 -1.0
81 76 1.0
81 84 1.0
81 137 -1.0
82 78 1.0
82 85 1.0
82 138 -1.0
83 86 1.0
83 87 1.0
83 131 -1.0
84 88 1.0
84 89 1.0
84 132 -1.0
85 86 1.0
85 90 1.0
85 133 -1.0
86 88 1.0
86 91 1.0
86 134 -1.0
87 86 1.0
87 92 1.0
87 135 -1.0
88 88 1.0
88 93 1.0
88 136 -1.0
89 86 1.0
89 94 1.0
89 137 -1.0
90 88 1.0
90 95 1.0
90 138 -1.0
91 96 1.0
91 97 1.0
91 131 -1.0
92 98 1.0
92 99 1.0
92 132 -1.0
93 96 1.0
93 100 1.0
93 133 -1.0
94 98 1.0
94 101 1.0
94 134 -1.0
95 96 1.0
95 102 1.0
95 135 -1.0
96 98 1.0
96 103 1.0
96 136 -1.0
97 96 1.0
97 104 1.0
97 137 -1.0
98 98 1.0
98 105 1.0
98 138 -1.0
99 106 1.0
99 107 1.0
99 131 -1.0
100 108 1.0
100 109 1.0
100 132 -1.0
101 106 1.0
101 110 1.0
101 133 -1.0
102 108 1.0
102 111 1.0
102 134 -1.0
103 106 1.0
103 112 1.0
103 135 -1.0
104 108 1.0
104 113 1.0
104 136 -1.0
105 106 1.0
105 114 1.0
105 137 -1.0
106 108 1.0
106 115 1.0
106 138 -1.0
107 56 1.0
107 117 -1.0
107 173 1.0
108 58 1.0
108 119 -1.0
108 174 1.0
109 66 1.0
109 121 -1.0
109 175 1.0
110 68 1.0
110 122 -1.0
110 176 1.0
111 76 1.0
111 123 -1.0
111 177 1.0
112 78 1.0
112 124 -1.0
112 178 1.0
113 86 1.0
113 125 -1.0
113 179 1.0
114 88 1.0
114 126 -1.0
114 180 1.0
115 96 1.0
115 127 -1.0
115 181 1.0
116 98 1.0
116 128 -1.0
116 182 1.0
117 106 1.0
117 129 -1.0
117 183 1.0
118 108 1.0
118 130 -1.0
118 184 1.0
119 57 1.0
120 59 1.0
121 60 1.0
122 61 1.0
123 62 1.0
124 63 1.0
125 64 1.0
126 65 1.0
127 67 1.0
128 69 1.0
129 70 1.0
130 71 1.0
131 72 1.0
132 73 1.0
133 74 1.0
134 75 1.0
135 77 1.0
136 79 1.0
137 80 1.0
138 81 1.0
139 82 1.0
140 83 1.0
141 84 1.0
142 85 1.0
143 87 1.0
144 89 1.0
145 90 1.0
146 91 1.0
147 92 1.0
148 93 1.0
149 94 1.0
150 95 1.0
151 97 1.0
152 99 1.0
153 100 1.0
154 101 1.0
155 102 1.0
156 103 1.0
157 104 1.0
158 105 1.0
159 107 1.0
160 109 1.0
161 110 1.0
162 111 1.0
163 112 1.0
164 113 1.0
165 114 1.0
166 115 1.0
1.79769313486232E+308 # value for infinity
0.0 # default left-hand-side value
44 # number of non-default left-hand-sides
1 -23.23937859
2 -1.79769313486232E+308
3 -1.79769313486232E+308
4 -1.79769313486232E+308
5 -1.79769313486232E+308
6 -1.79769313486232E+308
7 -1.79769313486232E+308
8 -1.79769313486232E+308
9 -1.79769313486232E+308
10 -1.79769313486232E+308
11 -1.79769313486232E+308
12 -1.79769313486232E+308
13 -1.79769313486232E+308
14 -1.79769313486232E+308
15 -1.79769313486232E+308
16 -1.79769313486232E+308
17 -1.79769313486232E+308
18 -1.79769313486232E+308
19 -1.79769313486232E+308
20 -1.79769313486232E+308
21 -1.79769313486232E+308
167 3.24
168 4.0
169 8.41
170 6.25
171 2.89
172 1.96
173 5.29
174 3.61
175 1.21
176 6.25
177 4.41
178 1.69
179 9.0
180 4.84
181 3.24
182 0.25
183 0.64
184 1.0
185 1.0
186 1.0
187 1.0
188 1.0
189 1.0
0.0 # default right-hand-side value
36 # number of non-default right-hand-sides
1 -23.23937859
2 -1.2
3 -1.2
4 -0.6
5 -0.6
6 -0.8
7 -0.8
8 -1.7
9 -1.7
10 -1.3
11 -1.3
12 -0.5
13 -0.5
167 1.79769313486232E+308
168 1.79769313486232E+308
169 1.79769313486232E+308
170 1.79769313486232E+308
171 1.79769313486232E+308
172 1.79769313486232E+308
173 1.79769313486232E+308
174 1.79769313486232E+308
175 1.79769313486232E+308
176 1.79769313486232E+308
177 1.79769313486232E+308
178 1.79769313486232E+308
179 1.79769313486232E+308
180 1.79769313486232E+308
181 1.79769313486232E+308
182 0.25
183 0.64
184 1.0
185 1.0
186 1.0
187 1.0
188 1.0
189 1.0
-9.848857802 # default variable lower bound value
94 # number of non-default variable lower bounds
1 0.0
2 0.0
3 0.0
4 0.0
5 0.0
6 0.0
7 0.0
8 0.0
9 0.0
10 0.0
11 0.0
12 0.0
13 0.0
14 0.0
15 0.0
16 0.0
17 0.0
18 0.0
19 0.0
20 0.0
21 0.0
22 0.0
23 0.0
24 0.0
55 0.0
56 0.0
58 0.0
66 0.0
68 0.0
76 0.0
78 0.0
86 0.0
88 0.0
96 0.0
98 0.0
106 0.0
108 0.0
116 2.89
117 1.2
118 0.0
119 1.2
120 0.0
121 0.6
122 0.6
123 0.8
124 0.8
125 1.7
126 1.7
127 1.3
128 1.3
129 0.5
130 0.5
131 0.0
132 0.0
133 0.0
134 0.0
135 0.0
136 0.0
137 0.0
138 0.0
139 -0.8
140 -0.5
141 -0.8
142 -0.5
143 -0.8
144 -0.5
145 -0.8
146 0.0
147 -0.5
148 0.0
149 -1.0
150 -1.0
151 -1.0
152 -1.0
153 -1.0
154 -1.0
155 -1.0
156 -1.0
157 -1.0
158 -1.0
159 -1.0
160 -1.0
161 -1.0
162 -1.0
163 -1.0
164 -1.0
165 -1.0
166 -1.0
167 -1.0
168 -1.0
169 -1.0
170 -1.0
171 -1.0
172 -1.0
9.848857802 # default variable upper bound value
70 # number of non-default variable upper bounds
55 36.0
56 9.0
58 4.0
66 9.0
68 4.0
76 9.0
78 4.0
86 9.0
88 4.0
96 9.0
98 4.0
106 9.0
108 4.0
116 36.0
117 4.5
118 9.0
119 2.0
120 4.0
121 8.4
122 3.4
123 8.2
124 3.2
125 7.3
126 2.3
127 7.7
128 2.7
129 8.5
130 3.5
131 9.0
132 4.0
133 9.0
134 4.0
135 9.0
136 4.0
137 9.0
138 4.0
139 0.8
140 0.5
141 0.8
142 0.5
143 0.8
144 0.5
145 0.8
146 9.0
147 0.5
148 4.0
149 1.0
150 1.0
151 1.0
152 1.0
153 1.0
154 1.0
155 1.0
156 1.0
157 1.0
158 1.0
159 1.0
160 1.0
161 1.0
162 1.0
163 1.0
164 1.0
165 1.0
166 1.0
167 1.0
168 1.0
169 1.0
170 1.0
171 1.0
172 1.0
0.0 # default variable primal value in starting point
13 # number of non-default variable primal values in starting point
116 2.89
117 1.2
119 1.2
121 0.6
122 0.6
123 0.8
124 0.8
125 1.7
126 1.7
127 1.3
128 1.3
129 0.5
130 0.5
0.0 # default constraint dual value in starting point
0 # number of non-default constraint dual values in starting point
0.0 # default variable bound dual value in starting point
0 # number of non-default variable bound dual values in starting point
0 # number of non-default variable names
0 # number of non-default constraint names
